c preprocessed version of pigs-wpp, 47 vertices, 134 edges
p td 47 134
0 1
0 36
0 35
12 0
2 1
41 1
2 3
2 41
4 3
41 3
4 5
40 4
5 6
40 5
34 5
7 6
21 6
34 6
7 8
7 21
20 7
22 7
9 8
24 8
21 8
9 10
24 9
11 10
38 10
12 11
30 11
25 11
12 13
12 36
25 12
13 14
13 24
25 13
15 14
31 14
37 14
16 15
37 15
15 39
16 17
39 16
18 17
18 19
33 18
18 34
19 20
20 21
22 21
23 22
23 24
23 30
25 23
25 24
25 26
25 35
25 36
25 37
25 38
25 39
30 25
27 26
26 32
26 35
26 37
28 27
29 27
27 32
29 28
28 31
33 28
30 29
32 31
33 34
35 36
37 38
42 44
42 19
42 43
42 33
42 18
42 34
42 40
42 45
43 44
43 19
43 20
43 28
43 33
43 25
43 45
44 46
44 0
44 19
44 29
44 35
44 39
44 30
44 25
44 45
45 46
45 30
45 25
45 23
45 0
45 1
45 3
45 4
45 9
45 10
45 17
45 22
45 24
45 32
45 31
45 28
45 27
45 29
45 40
45 38
45 39
45 41
45 33
45 18
46 42
46 43
46 2
46 16
46 17
46 41
